SAT
-100 -32 40 96 62 91 29 -37 -28 6 -44 -74 -89 52 71 -1 -85 -16 65 -58 -12 -55 20 -46 70 33 66 -79 34 -49 -72 -25 45 4 -17 75 76 -87 -48 92 50 -9 2 -10 -95 41 35 -30 5 -81 -80 -21 -27 -69 3 82 -15 47 42 -56 -51 -38 18 -63 94 54 -99 -88 98 -11 -77 -64 7 83 -90 -93 -61 53 97 26 -60 -22 -78 -36 67 24 43 -31 -13 -84 -19 -59 -23 -14 57 -73 8 -86 -68 39 0
